seed= 2052018 ;
N= 14 ;
M= 2 ;
F= 2 ;
K= 4 ;
T= 42 ;

p=[ 10 10 10 10 10 10 10 10 10 10 10 10 10 10 ];
r=[ 0 1 7 5 4 5 1 3 7 0 6 2 1 6 ];
d=[ 6 0 20 0 2 9 17 4 15 9 16 17 1 17 ];
s=[ 1 1 1 1 1 1 1 1 1 1 1 1 1 1 ];
w=[ 4 4 1 4 5 2 4 2 4 4 3 3 1 2 ];
f=[ 1 1 1 1 1 1 1 2 2 2 2 2 2 2 ];

e1=[ 10 10 10 10 10 10 10 10 10 10 10 10 10 10 10 10 10 10 10 10 10 8 8 8 8 8 8 8 8 8 8 8 8 8 8 8 8 8 8 8 8 8 ];
e2=[ 10 10 10 10 10 10 10 10 10 10 10 10 10 10 9 9 9 9 9 9 9 8 8 8 8 8 8 8 8 8 8 8 8 8 8 9 9 9 9 9 9 9 ];